c description: Subset cardinality formula for Random regular bipartite with (8,8) vertices and left degree 4 + 1 random edges
c generator: CNFgen (0.9.0)
c copyright: (C) 2012-2020 Massimo Lauria <massimo.lauria@uniroma1.it>
c url: https://massimolauria.net/cnfgen
c command line: cnfgen subsetcard 8
c
p cnf 33 76
1 2 3 0
1 2 4 0
1 3 4 0
2 3 4 0
5 6 7 0
5 6 8 0
5 7 8 0
6 7 8 0
9 10 11 0
9 10 12 0
9 10 13 0
9 11 12 0
9 11 13 0
9 12 13 0
10 11 12 0
10 11 13 0
10 12 13 0
11 12 13 0
14 15 16 0
14 15 17 0
14 16 17 0
15 16 17 0
18 19 20 0
18 19 21 0
18 20 21 0
19 20 21 0
22 23 24 0
22 23 25 0
22 24 25 0
23 24 25 0
26 27 28 0
26 27 29 0
26 28 29 0
27 28 29 0
30 31 32 0
30 31 33 0
30 32 33 0
31 32 33 0
-1 -5 -9 0
-1 -5 -26 0
-1 -5 -30 0
-1 -9 -26 0
-1 -9 -30 0
-1 -26 -30 0
-5 -9 -26 0
-5 -9 -30 0
-5 -26 -30 0
-9 -26 -30 0
-18 -22 -27 0
-18 -22 -31 0
-18 -27 -31 0
-22 -27 -31 0
-10 -14 -19 0
-10 -14 -23 0
-10 -19 -23 0
-14 -19 -23 0
-6 -11 -15 0
-6 -11 -24 0
-6 -15 -24 0
-11 -15 -24 0
-2 -16 -20 0
-2 -16 -28 0
-2 -20 -28 0
-16 -20 -28 0
-3 -7 -17 0
-3 -7 -25 0
-3 -17 -25 0
-7 -17 -25 0
-8 -12 -29 0
-8 -12 -32 0
-8 -29 -32 0
-12 -29 -32 0
-4 -13 -21 0
-4 -13 -33 0
-4 -21 -33 0
-13 -21 -33 0
